data;
param nombreJob := 5;
param nombreRessource := 3;
param duree := 1 7 2 9 3 3 4 4 5 10;
param capaciteRessource := 1 4 2 12 3 20;
param besoinRessource : 1 2 3 :=
                    1   3 8 5
                    2   2 6 7
                    3   1 4 9
                    4   2 2 10
                    5   4 7 3;
end;

